unknown
(model
; cardinality of BoundSet is 3
(declare-sort BoundSet 0)
; rep: @uc_BoundSet_0
; rep: @uc_BoundSet_1
; rep: @uc_BoundSet_2
(declare-sort UnboundSet 0)
(define-fun IsBuy ((BOUND_VARIABLE_459 BoundSet)) Bool true)
(define-fun IsBet ((BOUND_VARIABLE_459 BoundSet)) Bool true)
(define-fun IsHorseRacing ((BOUND_VARIABLE_459 BoundSet)) Bool true)
(define-fun IsRisk ((BOUND_VARIABLE_471 BoundSet) (BOUND_VARIABLE_472 BoundSet)) Bool false)
(define-fun IsLittleChance ((BOUND_VARIABLE_459 BoundSet)) Bool false)
(define-fun IsBigProfit ((BOUND_VARIABLE_459 BoundSet)) Bool false)
)
